(set-logic QF_LIA)
(set-option :produce-models true)
(set-option :timeout 10.0)
(declare-fun |s(0)| () Int)
(declare-fun |s(1)| () Int)
(declare-fun |s(5)| () Int)
(declare-fun |s(6)| () Int)
(declare-fun u_0_0 () Bool)
(declare-fun u_0_1 () Bool)
(declare-fun u_0_2 () Bool)
(declare-fun u_0_3 () Bool)
(declare-fun u_0_4 () Bool)
(declare-fun u_0_5 () Bool)
(declare-fun u_0_6 () Bool)
(declare-fun u_1_0 () Bool)
(declare-fun u_1_1 () Bool)
(declare-fun u_1_2 () Bool)
(declare-fun u_1_3 () Bool)
(declare-fun u_1_4 () Bool)
(declare-fun u_1_5 () Bool)
(declare-fun u_1_6 () Bool)
(declare-fun u_2_0 () Bool)
(declare-fun u_2_1 () Bool)
(declare-fun u_2_2 () Bool)
(declare-fun u_2_3 () Bool)
(declare-fun u_2_4 () Bool)
(declare-fun u_2_5 () Bool)
(declare-fun u_2_6 () Bool)
(declare-fun u_3_0 () Bool)
(declare-fun u_3_1 () Bool)
(declare-fun u_3_2 () Bool)
(declare-fun u_3_3 () Bool)
(declare-fun u_3_4 () Bool)
(declare-fun u_3_5 () Bool)
(declare-fun u_3_6 () Bool)
(declare-fun u_4_0 () Bool)
(declare-fun u_4_1 () Bool)
(declare-fun u_4_2 () Bool)
(declare-fun u_4_3 () Bool)
(declare-fun u_4_4 () Bool)
(declare-fun u_4_5 () Bool)
(declare-fun u_4_6 () Bool)
(declare-fun u_5_0 () Bool)
(declare-fun u_5_1 () Bool)
(declare-fun u_5_2 () Bool)
(declare-fun u_5_3 () Bool)
(declare-fun u_5_4 () Bool)
(declare-fun u_5_5 () Bool)
(declare-fun u_5_6 () Bool)
(declare-fun x_0_0 () Int)
(declare-fun x_0_1 () Int)
(declare-fun x_0_2 () Int)
(declare-fun x_0_3 () Int)
(declare-fun x_0_4 () Int)
(declare-fun x_0_5 () Int)
(declare-fun x_0_6 () Int)
(declare-fun x_1_0 () Int)
(declare-fun x_1_1 () Int)
(declare-fun x_1_2 () Int)
(declare-fun x_1_3 () Int)
(declare-fun x_1_4 () Int)
(declare-fun x_1_5 () Int)
(declare-fun x_1_6 () Int)
(declare-fun x_2_0 () Int)
(declare-fun x_2_1 () Int)
(declare-fun x_2_2 () Int)
(declare-fun x_2_3 () Int)
(declare-fun x_2_4 () Int)
(declare-fun x_2_5 () Int)
(declare-fun x_2_6 () Int)
(declare-fun x_3_0 () Int)
(declare-fun x_3_1 () Int)
(declare-fun x_3_2 () Int)
(declare-fun x_3_3 () Int)
(declare-fun x_3_4 () Int)
(declare-fun x_3_5 () Int)
(declare-fun x_3_6 () Int)
(declare-fun x_4_0 () Int)
(declare-fun x_4_1 () Int)
(declare-fun x_4_2 () Int)
(declare-fun x_4_3 () Int)
(declare-fun x_4_4 () Int)
(declare-fun x_4_5 () Int)
(declare-fun x_4_6 () Int)
(declare-fun x_5_0 () Int)
(declare-fun x_5_1 () Int)
(declare-fun x_5_2 () Int)
(declare-fun x_5_3 () Int)
(declare-fun x_5_4 () Int)
(declare-fun x_5_5 () Int)
(declare-fun x_5_6 () Int)
(declare-fun t_0 () Int)
(declare-fun t_1 () Int)
(declare-fun t_2 () Int)
(declare-fun t_3 () Int)
(declare-fun t_4 () Int)
(declare-fun t_5 () Int)
(declare-fun a_0 () Int)
(declare-fun a_1 () Int)
(declare-fun a_2 () Int)
(declare-fun a_3 () Int)
(declare-fun a_4 () Int)
(declare-fun a_5 () Int)
(declare-fun l_14 () Int)
(declare-fun l_13 () Int)
; Variables assignment
(assert (= |s(0)| 115792089237316195423570985008687907853269984665640564039457584007913129639936))
(assert (= |s(1)| 115792089237316195423570985008687907853269984665640564039457584007913129639937))
(assert (= |s(5)| 115792089237316195423570985008687907853269984665640564039457584007913129639938))
(assert (= |s(6)| 115792089237316195423570985008687907853269984665640564039457584007913129639939))
; Instructions constraints
(assert (and (<= 0 t_0) (< t_0 15)))
(assert (and (<= 0 t_1) (< t_1 15)))
(assert (and (<= 0 t_2) (< t_2 15)))
(assert (and (<= 0 t_3) (< t_3 15)))
(assert (and (<= 0 t_4) (< t_4 15)))
(assert (and (<= 0 t_5) (< t_5 15)))
; Stack contraints
(assert (=> (= t_0 2) (= t_1 2)))
(assert (=> (= t_1 2) (= t_2 2)))
(assert (=> (= t_2 2) (= t_3 2)))
(assert (=> (= t_3 2) (= t_4 2)))
(assert (=> (= t_4 2) (= t_5 2)))
(assert (=> (= t_0 0) (and (<= 0 a_0) (< a_0 115792089237316195423570985008687907853269984665640564039457584007913129639936) (not u_5_0) u_0_1 (= x_0_1 a_0) (and (and (= u_1_1 u_0_0) (= x_1_1 x_0_0)) (and (= u_2_1 u_1_0) (= x_2_1 x_1_0)) (and (= u_3_1 u_2_0) (= x_3_1 x_2_0)) (and (= u_4_1 u_3_0) (= x_4_1 x_3_0)) (and (= u_5_1 u_4_0) (= x_5_1 x_4_0))))))
(assert (=> (= t_0 1) (and u_0_0 (not u_5_1) (and (and (= u_0_1 u_1_0) (= x_0_1 x_1_0)) (and (= u_1_1 u_2_0) (= x_1_1 x_2_0)) (and (= u_2_1 u_3_0) (= x_2_1 x_3_0)) (and (= u_3_1 u_4_0) (= x_3_1 x_4_0)) (and (= u_4_1 u_5_0) (= x_4_1 x_5_0))))))
(assert (=> (= t_0 2) (and (and (= u_0_1 u_0_0) (= x_0_1 x_0_0)) (and (= u_1_1 u_1_0) (= x_1_1 x_1_0)) (and (= u_2_1 u_2_0) (= x_2_1 x_2_0)) (and (= u_3_1 u_3_0) (= x_3_1 x_3_0)) (and (= u_4_1 u_4_0) (= x_4_1 x_4_0)) (and (= u_5_1 u_5_0) (= x_5_1 x_5_0)))))
(assert (=> (= t_0 3) (and (not u_5_0) u_0_0 u_0_1 (= x_0_1 x_0_0) (and (and (= u_1_1 u_0_0) (= x_1_1 x_0_0)) (and (= u_2_1 u_1_0) (= x_2_1 x_1_0)) (and (= u_3_1 u_2_0) (= x_3_1 x_2_0)) (and (= u_4_1 u_3_0) (= x_4_1 x_3_0)) (and (= u_5_1 u_4_0) (= x_5_1 x_4_0))))))
(assert (=> (= t_0 4) (and (not u_5_0) u_1_0 u_0_1 (= x_0_1 x_1_0) (and (and (= u_1_1 u_0_0) (= x_1_1 x_0_0)) (and (= u_2_1 u_1_0) (= x_2_1 x_1_0)) (and (= u_3_1 u_2_0) (= x_3_1 x_2_0)) (and (= u_4_1 u_3_0) (= x_4_1 x_3_0)) (and (= u_5_1 u_4_0) (= x_5_1 x_4_0))))))
(assert (=> (= t_0 5) (and (not u_5_0) u_2_0 u_0_1 (= x_0_1 x_2_0) (and (and (= u_1_1 u_0_0) (= x_1_1 x_0_0)) (and (= u_2_1 u_1_0) (= x_2_1 x_1_0)) (and (= u_3_1 u_2_0) (= x_3_1 x_2_0)) (and (= u_4_1 u_3_0) (= x_4_1 x_3_0)) (and (= u_5_1 u_4_0) (= x_5_1 x_4_0))))))
(assert (=> (= t_0 6) (and (not u_5_0) u_3_0 u_0_1 (= x_0_1 x_3_0) (and (and (= u_1_1 u_0_0) (= x_1_1 x_0_0)) (and (= u_2_1 u_1_0) (= x_2_1 x_1_0)) (and (= u_3_1 u_2_0) (= x_3_1 x_2_0)) (and (= u_4_1 u_3_0) (= x_4_1 x_3_0)) (and (= u_5_1 u_4_0) (= x_5_1 x_4_0))))))
(assert (=> (= t_0 7) (and (not u_5_0) u_4_0 u_0_1 (= x_0_1 x_4_0) (and (and (= u_1_1 u_0_0) (= x_1_1 x_0_0)) (and (= u_2_1 u_1_0) (= x_2_1 x_1_0)) (and (= u_3_1 u_2_0) (= x_3_1 x_2_0)) (and (= u_4_1 u_3_0) (= x_4_1 x_3_0)) (and (= u_5_1 u_4_0) (= x_5_1 x_4_0))))))
(assert (=> (= t_0 8) (and u_1_0 u_0_1 (= x_0_1 x_1_0) u_1_1 (= x_1_1 x_0_0) true (and (and (= u_2_1 u_2_0) (= x_2_1 x_2_0)) (and (= u_3_1 u_3_0) (= x_3_1 x_3_0)) (and (= u_4_1 u_4_0) (= x_4_1 x_4_0)) (and (= u_5_1 u_5_0) (= x_5_1 x_5_0))))))
(assert (=> (= t_0 9) (and u_2_0 u_0_1 (= x_0_1 x_2_0) u_2_1 (= x_2_1 x_0_0) (and (and (= u_1_1 u_1_0) (= x_1_1 x_1_0))) (and (and (= u_3_1 u_3_0) (= x_3_1 x_3_0)) (and (= u_4_1 u_4_0) (= x_4_1 x_4_0)) (and (= u_5_1 u_5_0) (= x_5_1 x_5_0))))))
(assert (=> (= t_0 10) (and u_3_0 u_0_1 (= x_0_1 x_3_0) u_3_1 (= x_3_1 x_0_0) (and (and (= u_1_1 u_1_0) (= x_1_1 x_1_0)) (and (= u_2_1 u_2_0) (= x_2_1 x_2_0))) (and (and (= u_4_1 u_4_0) (= x_4_1 x_4_0)) (and (= u_5_1 u_5_0) (= x_5_1 x_5_0))))))
(assert (=> (= t_0 11) (and u_4_0 u_0_1 (= x_0_1 x_4_0) u_4_1 (= x_4_1 x_0_0) (and (and (= u_1_1 u_1_0) (= x_1_1 x_1_0)) (and (= u_2_1 u_2_0) (= x_2_1 x_2_0)) (and (= u_3_1 u_3_0) (= x_3_1 x_3_0))) (and (and (= u_5_1 u_5_0) (= x_5_1 x_5_0))))))
(assert (=> (= t_0 12) (and u_5_0 u_0_1 (= x_0_1 x_5_0) u_5_1 (= x_5_1 x_0_0) (and (and (= u_1_1 u_1_0) (= x_1_1 x_1_0)) (and (= u_2_1 u_2_0) (= x_2_1 x_2_0)) (and (= u_3_1 u_3_0) (= x_3_1 x_3_0)) (and (= u_4_1 u_4_0) (= x_4_1 x_4_0))) true)))
(assert (=> (= t_1 0) (and (<= 0 a_1) (< a_1 115792089237316195423570985008687907853269984665640564039457584007913129639936) (not u_5_1) u_0_2 (= x_0_2 a_1) (and (and (= u_1_2 u_0_1) (= x_1_2 x_0_1)) (and (= u_2_2 u_1_1) (= x_2_2 x_1_1)) (and (= u_3_2 u_2_1) (= x_3_2 x_2_1)) (and (= u_4_2 u_3_1) (= x_4_2 x_3_1)) (and (= u_5_2 u_4_1) (= x_5_2 x_4_1))))))
(assert (=> (= t_1 1) (and u_0_1 (not u_5_2) (and (and (= u_0_2 u_1_1) (= x_0_2 x_1_1)) (and (= u_1_2 u_2_1) (= x_1_2 x_2_1)) (and (= u_2_2 u_3_1) (= x_2_2 x_3_1)) (and (= u_3_2 u_4_1) (= x_3_2 x_4_1)) (and (= u_4_2 u_5_1) (= x_4_2 x_5_1))))))
(assert (=> (= t_1 2) (and (and (= u_0_2 u_0_1) (= x_0_2 x_0_1)) (and (= u_1_2 u_1_1) (= x_1_2 x_1_1)) (and (= u_2_2 u_2_1) (= x_2_2 x_2_1)) (and (= u_3_2 u_3_1) (= x_3_2 x_3_1)) (and (= u_4_2 u_4_1) (= x_4_2 x_4_1)) (and (= u_5_2 u_5_1) (= x_5_2 x_5_1)))))
(assert (=> (= t_1 3) (and (not u_5_1) u_0_1 u_0_2 (= x_0_2 x_0_1) (and (and (= u_1_2 u_0_1) (= x_1_2 x_0_1)) (and (= u_2_2 u_1_1) (= x_2_2 x_1_1)) (and (= u_3_2 u_2_1) (= x_3_2 x_2_1)) (and (= u_4_2 u_3_1) (= x_4_2 x_3_1)) (and (= u_5_2 u_4_1) (= x_5_2 x_4_1))))))
(assert (=> (= t_1 4) (and (not u_5_1) u_1_1 u_0_2 (= x_0_2 x_1_1) (and (and (= u_1_2 u_0_1) (= x_1_2 x_0_1)) (and (= u_2_2 u_1_1) (= x_2_2 x_1_1)) (and (= u_3_2 u_2_1) (= x_3_2 x_2_1)) (and (= u_4_2 u_3_1) (= x_4_2 x_3_1)) (and (= u_5_2 u_4_1) (= x_5_2 x_4_1))))))
(assert (=> (= t_1 5) (and (not u_5_1) u_2_1 u_0_2 (= x_0_2 x_2_1) (and (and (= u_1_2 u_0_1) (= x_1_2 x_0_1)) (and (= u_2_2 u_1_1) (= x_2_2 x_1_1)) (and (= u_3_2 u_2_1) (= x_3_2 x_2_1)) (and (= u_4_2 u_3_1) (= x_4_2 x_3_1)) (and (= u_5_2 u_4_1) (= x_5_2 x_4_1))))))
(assert (=> (= t_1 6) (and (not u_5_1) u_3_1 u_0_2 (= x_0_2 x_3_1) (and (and (= u_1_2 u_0_1) (= x_1_2 x_0_1)) (and (= u_2_2 u_1_1) (= x_2_2 x_1_1)) (and (= u_3_2 u_2_1) (= x_3_2 x_2_1)) (and (= u_4_2 u_3_1) (= x_4_2 x_3_1)) (and (= u_5_2 u_4_1) (= x_5_2 x_4_1))))))
(assert (=> (= t_1 7) (and (not u_5_1) u_4_1 u_0_2 (= x_0_2 x_4_1) (and (and (= u_1_2 u_0_1) (= x_1_2 x_0_1)) (and (= u_2_2 u_1_1) (= x_2_2 x_1_1)) (and (= u_3_2 u_2_1) (= x_3_2 x_2_1)) (and (= u_4_2 u_3_1) (= x_4_2 x_3_1)) (and (= u_5_2 u_4_1) (= x_5_2 x_4_1))))))
(assert (=> (= t_1 8) (and u_1_1 u_0_2 (= x_0_2 x_1_1) u_1_2 (= x_1_2 x_0_1) true (and (and (= u_2_2 u_2_1) (= x_2_2 x_2_1)) (and (= u_3_2 u_3_1) (= x_3_2 x_3_1)) (and (= u_4_2 u_4_1) (= x_4_2 x_4_1)) (and (= u_5_2 u_5_1) (= x_5_2 x_5_1))))))
(assert (=> (= t_1 9) (and u_2_1 u_0_2 (= x_0_2 x_2_1) u_2_2 (= x_2_2 x_0_1) (and (and (= u_1_2 u_1_1) (= x_1_2 x_1_1))) (and (and (= u_3_2 u_3_1) (= x_3_2 x_3_1)) (and (= u_4_2 u_4_1) (= x_4_2 x_4_1)) (and (= u_5_2 u_5_1) (= x_5_2 x_5_1))))))
(assert (=> (= t_1 10) (and u_3_1 u_0_2 (= x_0_2 x_3_1) u_3_2 (= x_3_2 x_0_1) (and (and (= u_1_2 u_1_1) (= x_1_2 x_1_1)) (and (= u_2_2 u_2_1) (= x_2_2 x_2_1))) (and (and (= u_4_2 u_4_1) (= x_4_2 x_4_1)) (and (= u_5_2 u_5_1) (= x_5_2 x_5_1))))))
(assert (=> (= t_1 11) (and u_4_1 u_0_2 (= x_0_2 x_4_1) u_4_2 (= x_4_2 x_0_1) (and (and (= u_1_2 u_1_1) (= x_1_2 x_1_1)) (and (= u_2_2 u_2_1) (= x_2_2 x_2_1)) (and (= u_3_2 u_3_1) (= x_3_2 x_3_1))) (and (and (= u_5_2 u_5_1) (= x_5_2 x_5_1))))))
(assert (=> (= t_1 12) (and u_5_1 u_0_2 (= x_0_2 x_5_1) u_5_2 (= x_5_2 x_0_1) (and (and (= u_1_2 u_1_1) (= x_1_2 x_1_1)) (and (= u_2_2 u_2_1) (= x_2_2 x_2_1)) (and (= u_3_2 u_3_1) (= x_3_2 x_3_1)) (and (= u_4_2 u_4_1) (= x_4_2 x_4_1))) true)))
(assert (=> (= t_2 0) (and (<= 0 a_2) (< a_2 115792089237316195423570985008687907853269984665640564039457584007913129639936) (not u_5_2) u_0_3 (= x_0_3 a_2) (and (and (= u_1_3 u_0_2) (= x_1_3 x_0_2)) (and (= u_2_3 u_1_2) (= x_2_3 x_1_2)) (and (= u_3_3 u_2_2) (= x_3_3 x_2_2)) (and (= u_4_3 u_3_2) (= x_4_3 x_3_2)) (and (= u_5_3 u_4_2) (= x_5_3 x_4_2))))))
(assert (=> (= t_2 1) (and u_0_2 (not u_5_3) (and (and (= u_0_3 u_1_2) (= x_0_3 x_1_2)) (and (= u_1_3 u_2_2) (= x_1_3 x_2_2)) (and (= u_2_3 u_3_2) (= x_2_3 x_3_2)) (and (= u_3_3 u_4_2) (= x_3_3 x_4_2)) (and (= u_4_3 u_5_2) (= x_4_3 x_5_2))))))
(assert (=> (= t_2 2) (and (and (= u_0_3 u_0_2) (= x_0_3 x_0_2)) (and (= u_1_3 u_1_2) (= x_1_3 x_1_2)) (and (= u_2_3 u_2_2) (= x_2_3 x_2_2)) (and (= u_3_3 u_3_2) (= x_3_3 x_3_2)) (and (= u_4_3 u_4_2) (= x_4_3 x_4_2)) (and (= u_5_3 u_5_2) (= x_5_3 x_5_2)))))
(assert (=> (= t_2 3) (and (not u_5_2) u_0_2 u_0_3 (= x_0_3 x_0_2) (and (and (= u_1_3 u_0_2) (= x_1_3 x_0_2)) (and (= u_2_3 u_1_2) (= x_2_3 x_1_2)) (and (= u_3_3 u_2_2) (= x_3_3 x_2_2)) (and (= u_4_3 u_3_2) (= x_4_3 x_3_2)) (and (= u_5_3 u_4_2) (= x_5_3 x_4_2))))))
(assert (=> (= t_2 4) (and (not u_5_2) u_1_2 u_0_3 (= x_0_3 x_1_2) (and (and (= u_1_3 u_0_2) (= x_1_3 x_0_2)) (and (= u_2_3 u_1_2) (= x_2_3 x_1_2)) (and (= u_3_3 u_2_2) (= x_3_3 x_2_2)) (and (= u_4_3 u_3_2) (= x_4_3 x_3_2)) (and (= u_5_3 u_4_2) (= x_5_3 x_4_2))))))
(assert (=> (= t_2 5) (and (not u_5_2) u_2_2 u_0_3 (= x_0_3 x_2_2) (and (and (= u_1_3 u_0_2) (= x_1_3 x_0_2)) (and (= u_2_3 u_1_2) (= x_2_3 x_1_2)) (and (= u_3_3 u_2_2) (= x_3_3 x_2_2)) (and (= u_4_3 u_3_2) (= x_4_3 x_3_2)) (and (= u_5_3 u_4_2) (= x_5_3 x_4_2))))))
(assert (=> (= t_2 6) (and (not u_5_2) u_3_2 u_0_3 (= x_0_3 x_3_2) (and (and (= u_1_3 u_0_2) (= x_1_3 x_0_2)) (and (= u_2_3 u_1_2) (= x_2_3 x_1_2)) (and (= u_3_3 u_2_2) (= x_3_3 x_2_2)) (and (= u_4_3 u_3_2) (= x_4_3 x_3_2)) (and (= u_5_3 u_4_2) (= x_5_3 x_4_2))))))
(assert (=> (= t_2 7) (and (not u_5_2) u_4_2 u_0_3 (= x_0_3 x_4_2) (and (and (= u_1_3 u_0_2) (= x_1_3 x_0_2)) (and (= u_2_3 u_1_2) (= x_2_3 x_1_2)) (and (= u_3_3 u_2_2) (= x_3_3 x_2_2)) (and (= u_4_3 u_3_2) (= x_4_3 x_3_2)) (and (= u_5_3 u_4_2) (= x_5_3 x_4_2))))))
(assert (=> (= t_2 8) (and u_1_2 u_0_3 (= x_0_3 x_1_2) u_1_3 (= x_1_3 x_0_2) true (and (and (= u_2_3 u_2_2) (= x_2_3 x_2_2)) (and (= u_3_3 u_3_2) (= x_3_3 x_3_2)) (and (= u_4_3 u_4_2) (= x_4_3 x_4_2)) (and (= u_5_3 u_5_2) (= x_5_3 x_5_2))))))
(assert (=> (= t_2 9) (and u_2_2 u_0_3 (= x_0_3 x_2_2) u_2_3 (= x_2_3 x_0_2) (and (and (= u_1_3 u_1_2) (= x_1_3 x_1_2))) (and (and (= u_3_3 u_3_2) (= x_3_3 x_3_2)) (and (= u_4_3 u_4_2) (= x_4_3 x_4_2)) (and (= u_5_3 u_5_2) (= x_5_3 x_5_2))))))
(assert (=> (= t_2 10) (and u_3_2 u_0_3 (= x_0_3 x_3_2) u_3_3 (= x_3_3 x_0_2) (and (and (= u_1_3 u_1_2) (= x_1_3 x_1_2)) (and (= u_2_3 u_2_2) (= x_2_3 x_2_2))) (and (and (= u_4_3 u_4_2) (= x_4_3 x_4_2)) (and (= u_5_3 u_5_2) (= x_5_3 x_5_2))))))
(assert (=> (= t_2 11) (and u_4_2 u_0_3 (= x_0_3 x_4_2) u_4_3 (= x_4_3 x_0_2) (and (and (= u_1_3 u_1_2) (= x_1_3 x_1_2)) (and (= u_2_3 u_2_2) (= x_2_3 x_2_2)) (and (= u_3_3 u_3_2) (= x_3_3 x_3_2))) (and (and (= u_5_3 u_5_2) (= x_5_3 x_5_2))))))
(assert (=> (= t_2 12) (and u_5_2 u_0_3 (= x_0_3 x_5_2) u_5_3 (= x_5_3 x_0_2) (and (and (= u_1_3 u_1_2) (= x_1_3 x_1_2)) (and (= u_2_3 u_2_2) (= x_2_3 x_2_2)) (and (= u_3_3 u_3_2) (= x_3_3 x_3_2)) (and (= u_4_3 u_4_2) (= x_4_3 x_4_2))) true)))
(assert (=> (= t_3 0) (and (<= 0 a_3) (< a_3 115792089237316195423570985008687907853269984665640564039457584007913129639936) (not u_5_3) u_0_4 (= x_0_4 a_3) (and (and (= u_1_4 u_0_3) (= x_1_4 x_0_3)) (and (= u_2_4 u_1_3) (= x_2_4 x_1_3)) (and (= u_3_4 u_2_3) (= x_3_4 x_2_3)) (and (= u_4_4 u_3_3) (= x_4_4 x_3_3)) (and (= u_5_4 u_4_3) (= x_5_4 x_4_3))))))
(assert (=> (= t_3 1) (and u_0_3 (not u_5_4) (and (and (= u_0_4 u_1_3) (= x_0_4 x_1_3)) (and (= u_1_4 u_2_3) (= x_1_4 x_2_3)) (and (= u_2_4 u_3_3) (= x_2_4 x_3_3)) (and (= u_3_4 u_4_3) (= x_3_4 x_4_3)) (and (= u_4_4 u_5_3) (= x_4_4 x_5_3))))))
(assert (=> (= t_3 2) (and (and (= u_0_4 u_0_3) (= x_0_4 x_0_3)) (and (= u_1_4 u_1_3) (= x_1_4 x_1_3)) (and (= u_2_4 u_2_3) (= x_2_4 x_2_3)) (and (= u_3_4 u_3_3) (= x_3_4 x_3_3)) (and (= u_4_4 u_4_3) (= x_4_4 x_4_3)) (and (= u_5_4 u_5_3) (= x_5_4 x_5_3)))))
(assert (=> (= t_3 3) (and (not u_5_3) u_0_3 u_0_4 (= x_0_4 x_0_3) (and (and (= u_1_4 u_0_3) (= x_1_4 x_0_3)) (and (= u_2_4 u_1_3) (= x_2_4 x_1_3)) (and (= u_3_4 u_2_3) (= x_3_4 x_2_3)) (and (= u_4_4 u_3_3) (= x_4_4 x_3_3)) (and (= u_5_4 u_4_3) (= x_5_4 x_4_3))))))
(assert (=> (= t_3 4) (and (not u_5_3) u_1_3 u_0_4 (= x_0_4 x_1_3) (and (and (= u_1_4 u_0_3) (= x_1_4 x_0_3)) (and (= u_2_4 u_1_3) (= x_2_4 x_1_3)) (and (= u_3_4 u_2_3) (= x_3_4 x_2_3)) (and (= u_4_4 u_3_3) (= x_4_4 x_3_3)) (and (= u_5_4 u_4_3) (= x_5_4 x_4_3))))))
(assert (=> (= t_3 5) (and (not u_5_3) u_2_3 u_0_4 (= x_0_4 x_2_3) (and (and (= u_1_4 u_0_3) (= x_1_4 x_0_3)) (and (= u_2_4 u_1_3) (= x_2_4 x_1_3)) (and (= u_3_4 u_2_3) (= x_3_4 x_2_3)) (and (= u_4_4 u_3_3) (= x_4_4 x_3_3)) (and (= u_5_4 u_4_3) (= x_5_4 x_4_3))))))
(assert (=> (= t_3 6) (and (not u_5_3) u_3_3 u_0_4 (= x_0_4 x_3_3) (and (and (= u_1_4 u_0_3) (= x_1_4 x_0_3)) (and (= u_2_4 u_1_3) (= x_2_4 x_1_3)) (and (= u_3_4 u_2_3) (= x_3_4 x_2_3)) (and (= u_4_4 u_3_3) (= x_4_4 x_3_3)) (and (= u_5_4 u_4_3) (= x_5_4 x_4_3))))))
(assert (=> (= t_3 7) (and (not u_5_3) u_4_3 u_0_4 (= x_0_4 x_4_3) (and (and (= u_1_4 u_0_3) (= x_1_4 x_0_3)) (and (= u_2_4 u_1_3) (= x_2_4 x_1_3)) (and (= u_3_4 u_2_3) (= x_3_4 x_2_3)) (and (= u_4_4 u_3_3) (= x_4_4 x_3_3)) (and (= u_5_4 u_4_3) (= x_5_4 x_4_3))))))
(assert (=> (= t_3 8) (and u_1_3 u_0_4 (= x_0_4 x_1_3) u_1_4 (= x_1_4 x_0_3) true (and (and (= u_2_4 u_2_3) (= x_2_4 x_2_3)) (and (= u_3_4 u_3_3) (= x_3_4 x_3_3)) (and (= u_4_4 u_4_3) (= x_4_4 x_4_3)) (and (= u_5_4 u_5_3) (= x_5_4 x_5_3))))))
(assert (=> (= t_3 9) (and u_2_3 u_0_4 (= x_0_4 x_2_3) u_2_4 (= x_2_4 x_0_3) (and (and (= u_1_4 u_1_3) (= x_1_4 x_1_3))) (and (and (= u_3_4 u_3_3) (= x_3_4 x_3_3)) (and (= u_4_4 u_4_3) (= x_4_4 x_4_3)) (and (= u_5_4 u_5_3) (= x_5_4 x_5_3))))))
(assert (=> (= t_3 10) (and u_3_3 u_0_4 (= x_0_4 x_3_3) u_3_4 (= x_3_4 x_0_3) (and (and (= u_1_4 u_1_3) (= x_1_4 x_1_3)) (and (= u_2_4 u_2_3) (= x_2_4 x_2_3))) (and (and (= u_4_4 u_4_3) (= x_4_4 x_4_3)) (and (= u_5_4 u_5_3) (= x_5_4 x_5_3))))))
(assert (=> (= t_3 11) (and u_4_3 u_0_4 (= x_0_4 x_4_3) u_4_4 (= x_4_4 x_0_3) (and (and (= u_1_4 u_1_3) (= x_1_4 x_1_3)) (and (= u_2_4 u_2_3) (= x_2_4 x_2_3)) (and (= u_3_4 u_3_3) (= x_3_4 x_3_3))) (and (and (= u_5_4 u_5_3) (= x_5_4 x_5_3))))))
(assert (=> (= t_3 12) (and u_5_3 u_0_4 (= x_0_4 x_5_3) u_5_4 (= x_5_4 x_0_3) (and (and (= u_1_4 u_1_3) (= x_1_4 x_1_3)) (and (= u_2_4 u_2_3) (= x_2_4 x_2_3)) (and (= u_3_4 u_3_3) (= x_3_4 x_3_3)) (and (= u_4_4 u_4_3) (= x_4_4 x_4_3))) true)))
(assert (=> (= t_4 0) (and (<= 0 a_4) (< a_4 115792089237316195423570985008687907853269984665640564039457584007913129639936) (not u_5_4) u_0_5 (= x_0_5 a_4) (and (and (= u_1_5 u_0_4) (= x_1_5 x_0_4)) (and (= u_2_5 u_1_4) (= x_2_5 x_1_4)) (and (= u_3_5 u_2_4) (= x_3_5 x_2_4)) (and (= u_4_5 u_3_4) (= x_4_5 x_3_4)) (and (= u_5_5 u_4_4) (= x_5_5 x_4_4))))))
(assert (=> (= t_4 1) (and u_0_4 (not u_5_5) (and (and (= u_0_5 u_1_4) (= x_0_5 x_1_4)) (and (= u_1_5 u_2_4) (= x_1_5 x_2_4)) (and (= u_2_5 u_3_4) (= x_2_5 x_3_4)) (and (= u_3_5 u_4_4) (= x_3_5 x_4_4)) (and (= u_4_5 u_5_4) (= x_4_5 x_5_4))))))
(assert (=> (= t_4 2) (and (and (= u_0_5 u_0_4) (= x_0_5 x_0_4)) (and (= u_1_5 u_1_4) (= x_1_5 x_1_4)) (and (= u_2_5 u_2_4) (= x_2_5 x_2_4)) (and (= u_3_5 u_3_4) (= x_3_5 x_3_4)) (and (= u_4_5 u_4_4) (= x_4_5 x_4_4)) (and (= u_5_5 u_5_4) (= x_5_5 x_5_4)))))
(assert (=> (= t_4 3) (and (not u_5_4) u_0_4 u_0_5 (= x_0_5 x_0_4) (and (and (= u_1_5 u_0_4) (= x_1_5 x_0_4)) (and (= u_2_5 u_1_4) (= x_2_5 x_1_4)) (and (= u_3_5 u_2_4) (= x_3_5 x_2_4)) (and (= u_4_5 u_3_4) (= x_4_5 x_3_4)) (and (= u_5_5 u_4_4) (= x_5_5 x_4_4))))))
(assert (=> (= t_4 4) (and (not u_5_4) u_1_4 u_0_5 (= x_0_5 x_1_4) (and (and (= u_1_5 u_0_4) (= x_1_5 x_0_4)) (and (= u_2_5 u_1_4) (= x_2_5 x_1_4)) (and (= u_3_5 u_2_4) (= x_3_5 x_2_4)) (and (= u_4_5 u_3_4) (= x_4_5 x_3_4)) (and (= u_5_5 u_4_4) (= x_5_5 x_4_4))))))
(assert (=> (= t_4 5) (and (not u_5_4) u_2_4 u_0_5 (= x_0_5 x_2_4) (and (and (= u_1_5 u_0_4) (= x_1_5 x_0_4)) (and (= u_2_5 u_1_4) (= x_2_5 x_1_4)) (and (= u_3_5 u_2_4) (= x_3_5 x_2_4)) (and (= u_4_5 u_3_4) (= x_4_5 x_3_4)) (and (= u_5_5 u_4_4) (= x_5_5 x_4_4))))))
(assert (=> (= t_4 6) (and (not u_5_4) u_3_4 u_0_5 (= x_0_5 x_3_4) (and (and (= u_1_5 u_0_4) (= x_1_5 x_0_4)) (and (= u_2_5 u_1_4) (= x_2_5 x_1_4)) (and (= u_3_5 u_2_4) (= x_3_5 x_2_4)) (and (= u_4_5 u_3_4) (= x_4_5 x_3_4)) (and (= u_5_5 u_4_4) (= x_5_5 x_4_4))))))
(assert (=> (= t_4 7) (and (not u_5_4) u_4_4 u_0_5 (= x_0_5 x_4_4) (and (and (= u_1_5 u_0_4) (= x_1_5 x_0_4)) (and (= u_2_5 u_1_4) (= x_2_5 x_1_4)) (and (= u_3_5 u_2_4) (= x_3_5 x_2_4)) (and (= u_4_5 u_3_4) (= x_4_5 x_3_4)) (and (= u_5_5 u_4_4) (= x_5_5 x_4_4))))))
(assert (=> (= t_4 8) (and u_1_4 u_0_5 (= x_0_5 x_1_4) u_1_5 (= x_1_5 x_0_4) true (and (and (= u_2_5 u_2_4) (= x_2_5 x_2_4)) (and (= u_3_5 u_3_4) (= x_3_5 x_3_4)) (and (= u_4_5 u_4_4) (= x_4_5 x_4_4)) (and (= u_5_5 u_5_4) (= x_5_5 x_5_4))))))
(assert (=> (= t_4 9) (and u_2_4 u_0_5 (= x_0_5 x_2_4) u_2_5 (= x_2_5 x_0_4) (and (and (= u_1_5 u_1_4) (= x_1_5 x_1_4))) (and (and (= u_3_5 u_3_4) (= x_3_5 x_3_4)) (and (= u_4_5 u_4_4) (= x_4_5 x_4_4)) (and (= u_5_5 u_5_4) (= x_5_5 x_5_4))))))
(assert (=> (= t_4 10) (and u_3_4 u_0_5 (= x_0_5 x_3_4) u_3_5 (= x_3_5 x_0_4) (and (and (= u_1_5 u_1_4) (= x_1_5 x_1_4)) (and (= u_2_5 u_2_4) (= x_2_5 x_2_4))) (and (and (= u_4_5 u_4_4) (= x_4_5 x_4_4)) (and (= u_5_5 u_5_4) (= x_5_5 x_5_4))))))
(assert (=> (= t_4 11) (and u_4_4 u_0_5 (= x_0_5 x_4_4) u_4_5 (= x_4_5 x_0_4) (and (and (= u_1_5 u_1_4) (= x_1_5 x_1_4)) (and (= u_2_5 u_2_4) (= x_2_5 x_2_4)) (and (= u_3_5 u_3_4) (= x_3_5 x_3_4))) (and (and (= u_5_5 u_5_4) (= x_5_5 x_5_4))))))
(assert (=> (= t_4 12) (and u_5_4 u_0_5 (= x_0_5 x_5_4) u_5_5 (= x_5_5 x_0_4) (and (and (= u_1_5 u_1_4) (= x_1_5 x_1_4)) (and (= u_2_5 u_2_4) (= x_2_5 x_2_4)) (and (= u_3_5 u_3_4) (= x_3_5 x_3_4)) (and (= u_4_5 u_4_4) (= x_4_5 x_4_4))) true)))
(assert (=> (= t_5 0) (and (<= 0 a_5) (< a_5 115792089237316195423570985008687907853269984665640564039457584007913129639936) (not u_5_5) u_0_6 (= x_0_6 a_5) (and (and (= u_1_6 u_0_5) (= x_1_6 x_0_5)) (and (= u_2_6 u_1_5) (= x_2_6 x_1_5)) (and (= u_3_6 u_2_5) (= x_3_6 x_2_5)) (and (= u_4_6 u_3_5) (= x_4_6 x_3_5)) (and (= u_5_6 u_4_5) (= x_5_6 x_4_5))))))
(assert (=> (= t_5 1) (and u_0_5 (not u_5_6) (and (and (= u_0_6 u_1_5) (= x_0_6 x_1_5)) (and (= u_1_6 u_2_5) (= x_1_6 x_2_5)) (and (= u_2_6 u_3_5) (= x_2_6 x_3_5)) (and (= u_3_6 u_4_5) (= x_3_6 x_4_5)) (and (= u_4_6 u_5_5) (= x_4_6 x_5_5))))))
(assert (=> (= t_5 2) (and (and (= u_0_6 u_0_5) (= x_0_6 x_0_5)) (and (= u_1_6 u_1_5) (= x_1_6 x_1_5)) (and (= u_2_6 u_2_5) (= x_2_6 x_2_5)) (and (= u_3_6 u_3_5) (= x_3_6 x_3_5)) (and (= u_4_6 u_4_5) (= x_4_6 x_4_5)) (and (= u_5_6 u_5_5) (= x_5_6 x_5_5)))))
(assert (=> (= t_5 3) (and (not u_5_5) u_0_5 u_0_6 (= x_0_6 x_0_5) (and (and (= u_1_6 u_0_5) (= x_1_6 x_0_5)) (and (= u_2_6 u_1_5) (= x_2_6 x_1_5)) (and (= u_3_6 u_2_5) (= x_3_6 x_2_5)) (and (= u_4_6 u_3_5) (= x_4_6 x_3_5)) (and (= u_5_6 u_4_5) (= x_5_6 x_4_5))))))
(assert (=> (= t_5 4) (and (not u_5_5) u_1_5 u_0_6 (= x_0_6 x_1_5) (and (and (= u_1_6 u_0_5) (= x_1_6 x_0_5)) (and (= u_2_6 u_1_5) (= x_2_6 x_1_5)) (and (= u_3_6 u_2_5) (= x_3_6 x_2_5)) (and (= u_4_6 u_3_5) (= x_4_6 x_3_5)) (and (= u_5_6 u_4_5) (= x_5_6 x_4_5))))))
(assert (=> (= t_5 5) (and (not u_5_5) u_2_5 u_0_6 (= x_0_6 x_2_5) (and (and (= u_1_6 u_0_5) (= x_1_6 x_0_5)) (and (= u_2_6 u_1_5) (= x_2_6 x_1_5)) (and (= u_3_6 u_2_5) (= x_3_6 x_2_5)) (and (= u_4_6 u_3_5) (= x_4_6 x_3_5)) (and (= u_5_6 u_4_5) (= x_5_6 x_4_5))))))
(assert (=> (= t_5 6) (and (not u_5_5) u_3_5 u_0_6 (= x_0_6 x_3_5) (and (and (= u_1_6 u_0_5) (= x_1_6 x_0_5)) (and (= u_2_6 u_1_5) (= x_2_6 x_1_5)) (and (= u_3_6 u_2_5) (= x_3_6 x_2_5)) (and (= u_4_6 u_3_5) (= x_4_6 x_3_5)) (and (= u_5_6 u_4_5) (= x_5_6 x_4_5))))))
(assert (=> (= t_5 7) (and (not u_5_5) u_4_5 u_0_6 (= x_0_6 x_4_5) (and (and (= u_1_6 u_0_5) (= x_1_6 x_0_5)) (and (= u_2_6 u_1_5) (= x_2_6 x_1_5)) (and (= u_3_6 u_2_5) (= x_3_6 x_2_5)) (and (= u_4_6 u_3_5) (= x_4_6 x_3_5)) (and (= u_5_6 u_4_5) (= x_5_6 x_4_5))))))
(assert (=> (= t_5 8) (and u_1_5 u_0_6 (= x_0_6 x_1_5) u_1_6 (= x_1_6 x_0_5) true (and (and (= u_2_6 u_2_5) (= x_2_6 x_2_5)) (and (= u_3_6 u_3_5) (= x_3_6 x_3_5)) (and (= u_4_6 u_4_5) (= x_4_6 x_4_5)) (and (= u_5_6 u_5_5) (= x_5_6 x_5_5))))))
(assert (=> (= t_5 9) (and u_2_5 u_0_6 (= x_0_6 x_2_5) u_2_6 (= x_2_6 x_0_5) (and (and (= u_1_6 u_1_5) (= x_1_6 x_1_5))) (and (and (= u_3_6 u_3_5) (= x_3_6 x_3_5)) (and (= u_4_6 u_4_5) (= x_4_6 x_4_5)) (and (= u_5_6 u_5_5) (= x_5_6 x_5_5))))))
(assert (=> (= t_5 10) (and u_3_5 u_0_6 (= x_0_6 x_3_5) u_3_6 (= x_3_6 x_0_5) (and (and (= u_1_6 u_1_5) (= x_1_6 x_1_5)) (and (= u_2_6 u_2_5) (= x_2_6 x_2_5))) (and (and (= u_4_6 u_4_5) (= x_4_6 x_4_5)) (and (= u_5_6 u_5_5) (= x_5_6 x_5_5))))))
(assert (=> (= t_5 11) (and u_4_5 u_0_6 (= x_0_6 x_4_5) u_4_6 (= x_4_6 x_0_5) (and (and (= u_1_6 u_1_5) (= x_1_6 x_1_5)) (and (= u_2_6 u_2_5) (= x_2_6 x_2_5)) (and (= u_3_6 u_3_5) (= x_3_6 x_3_5))) (and (and (= u_5_6 u_5_5) (= x_5_6 x_5_5))))))
(assert (=> (= t_5 12) (and u_5_5 u_0_6 (= x_0_6 x_5_5) u_5_6 (= x_5_6 x_0_5) (and (and (= u_1_6 u_1_5) (= x_1_6 x_1_5)) (and (= u_2_6 u_2_5) (= x_2_6 x_2_5)) (and (= u_3_6 u_3_5) (= x_3_6 x_3_5)) (and (= u_4_6 u_4_5) (= x_4_6 x_4_5))) true)))
; Commutative constraints
; Non-commutative constraints
(assert (not (= t_0 14)))
(assert (not (= t_1 14)))
(assert (=> (= t_2 14) (and (and true (and u_0_2 (= x_0_2 |s(5)|))) u_0_3 (= x_0_3 |s(6)|) (and (and (= u_1_3 u_1_2) (= x_1_3 x_1_2)) (and (= u_2_3 u_2_2) (= x_2_3 x_2_2)) (and (= u_3_3 u_3_2) (= x_3_3 x_3_2)) (and (= u_4_3 u_4_2) (= x_4_3 x_4_2)) (and (= u_5_3 u_5_2) (= x_5_3 x_5_2))) (and true) (and true))))
(assert (=> (= t_3 14) (and (and true (and u_0_3 (= x_0_3 |s(5)|))) u_0_4 (= x_0_4 |s(6)|) (and (and (= u_1_4 u_1_3) (= x_1_4 x_1_3)) (and (= u_2_4 u_2_3) (= x_2_4 x_2_3)) (and (= u_3_4 u_3_3) (= x_3_4 x_3_3)) (and (= u_4_4 u_4_3) (= x_4_4 x_4_3)) (and (= u_5_4 u_5_3) (= x_5_4 x_5_3))) (and true) (and true))))
(assert (=> (= t_4 14) (and (and true (and u_0_4 (= x_0_4 |s(5)|))) u_0_5 (= x_0_5 |s(6)|) (and (and (= u_1_5 u_1_4) (= x_1_5 x_1_4)) (and (= u_2_5 u_2_4) (= x_2_5 x_2_4)) (and (= u_3_5 u_3_4) (= x_3_5 x_3_4)) (and (= u_4_5 u_4_4) (= x_4_5 x_4_4)) (and (= u_5_5 u_5_4) (= x_5_5 x_5_4))) (and true) (and true))))
(assert (=> (= t_5 14) (and (and true (and u_0_5 (= x_0_5 |s(5)|))) u_0_6 (= x_0_6 |s(6)|) (and (and (= u_1_6 u_1_5) (= x_1_6 x_1_5)) (and (= u_2_6 u_2_5) (= x_2_6 x_2_5)) (and (= u_3_6 u_3_5) (= x_3_6 x_3_5)) (and (= u_4_6 u_4_5) (= x_4_6 x_4_5)) (and (= u_5_6 u_5_5) (= x_5_6 x_5_5))) (and true) (and true))))
(assert (not (= t_0 13)))
(assert (=> (= t_1 13) (and (and true (and u_0_1 (= x_0_1 |s(1)|)) (and u_1_1 (= x_1_1 18446744073709551615))) u_0_2 (= x_0_2 |s(5)|) (and (and (= u_1_2 u_2_1) (= x_1_2 x_2_1)) (and (= u_2_2 u_3_1) (= x_2_2 x_3_1)) (and (= u_3_2 u_4_1) (= x_3_2 x_4_1)) (and (= u_4_2 u_5_1) (= x_4_2 x_5_1))) (and true (not u_5_2)) (and true))))
(assert (=> (= t_2 13) (and (and true (and u_0_2 (= x_0_2 |s(1)|)) (and u_1_2 (= x_1_2 18446744073709551615))) u_0_3 (= x_0_3 |s(5)|) (and (and (= u_1_3 u_2_2) (= x_1_3 x_2_2)) (and (= u_2_3 u_3_2) (= x_2_3 x_3_2)) (and (= u_3_3 u_4_2) (= x_3_3 x_4_2)) (and (= u_4_3 u_5_2) (= x_4_3 x_5_2))) (and true (not u_5_3)) (and true))))
(assert (=> (= t_3 13) (and (and true (and u_0_3 (= x_0_3 |s(1)|)) (and u_1_3 (= x_1_3 18446744073709551615))) u_0_4 (= x_0_4 |s(5)|) (and (and (= u_1_4 u_2_3) (= x_1_4 x_2_3)) (and (= u_2_4 u_3_3) (= x_2_4 x_3_3)) (and (= u_3_4 u_4_3) (= x_3_4 x_4_3)) (and (= u_4_4 u_5_3) (= x_4_4 x_5_3))) (and true (not u_5_4)) (and true))))
(assert (=> (= t_4 13) (and (and true (and u_0_4 (= x_0_4 |s(1)|)) (and u_1_4 (= x_1_4 18446744073709551615))) u_0_5 (= x_0_5 |s(5)|) (and (and (= u_1_5 u_2_4) (= x_1_5 x_2_4)) (and (= u_2_5 u_3_4) (= x_2_5 x_3_4)) (and (= u_3_5 u_4_4) (= x_3_5 x_4_4)) (and (= u_4_5 u_5_4) (= x_4_5 x_5_4))) (and true (not u_5_5)) (and true))))
(assert (not (= t_5 13)))
; Store constraints
; Initial stack constraints
(assert (and u_0_0 (= x_0_0 |s(0)|)))
(assert (and u_1_0 (= x_1_0 |s(1)|)))
(assert (not u_2_0))
(assert (not u_3_0))
(assert (not u_4_0))
(assert (not u_5_0))
; Final stack constraints
(assert (and u_0_6 (= x_0_6 |s(6)|)))
(assert (and u_1_6 (= x_1_6 18446744073709551615)))
(assert (and u_2_6 (= x_2_6 0)))
(assert (and u_3_6 (= x_3_6 |s(0)|)))
(assert (and u_4_6 (= x_4_6 |s(1)|)))
(assert (not u_5_6))
; All values are eventually pushed
(assert (or (and (= t_0 0) (= a_0 18446744073709551615)) (and (= t_1 0) (= a_1 18446744073709551615)) (and (= t_2 0) (= a_2 18446744073709551615)) (and (= t_3 0) (= a_3 18446744073709551615)) (and (= t_4 0) (= a_4 18446744073709551615)) (and (= t_5 0) (= a_5 18446744073709551615))))
(assert (or (and (= t_0 0) (= a_0 0)) (and (= t_1 0) (= a_1 0)) (and (= t_2 0) (= a_2 0)) (and (= t_3 0) (= a_3 0)) (and (= t_4 0) (= a_4 0)) (and (= t_5 0) (= a_5 0))))
; If we push or dup a value, the following instruction cannot be a pop
(assert (=> (= t_1 1) (or (= t_0 1) (= t_0 8) (= t_0 9) (= t_0 10) (= t_0 11) (= t_0 12))))
(assert (=> (= t_2 1) (or (= t_1 1) (= t_1 8) (= t_1 9) (= t_1 10) (= t_1 11) (= t_1 12))))
(assert (=> (= t_3 1) (or (= t_2 1) (= t_2 8) (= t_2 9) (= t_2 10) (= t_2 11) (= t_2 12))))
(assert (=> (= t_4 1) (or (= t_3 1) (= t_3 8) (= t_3 9) (= t_3 10) (= t_3 11) (= t_3 12))))
(assert (=> (= t_5 1) (or (= t_4 1) (= t_4 8) (= t_4 9) (= t_4 10) (= t_4 11) (= t_4 12))))
; All uninterpreted functions in the final stack are eventually used
; Constraints using l variables
(assert (and (<= 2 l_14) (< l_14 6)))
(assert (= (= t_2 14) (= l_14 2)))
(assert (= (= t_3 14) (= l_14 3)))
(assert (= (= t_4 14) (= l_14 4)))
(assert (= (= t_5 14) (= l_14 5)))
(assert (and (<= 1 l_13) (< l_13 5)))
(assert (= (= t_1 13) (= l_13 1)))
(assert (= (= t_2 13) (= l_13 2)))
(assert (= (= t_3 13) (= l_13 3)))
(assert (= (= t_4 13) (= l_13 4)))
(assert (< l_13 l_14))
; Soft constraints for optimizing the number of instructions
(assert-soft (= t_0 2) :weight 1 :id gas)
(assert-soft (= t_1 2) :weight 1 :id gas)
(assert-soft (= t_2 2) :weight 1 :id gas)
(assert-soft (= t_3 2) :weight 1 :id gas)
(assert-soft (= t_4 2) :weight 1 :id gas)
(assert-soft (= t_5 2) :weight 1 :id gas)
(minimize gas)
(check-sat)
(get-objectives)
(load-objective-model -1)
(get-value (t_0))
(get-value (a_0))
(get-value (t_1))
(get-value (a_1))
(get-value (t_2))
(get-value (a_2))
(get-value (t_3))
(get-value (a_3))
(get-value (t_4))
(get-value (a_4))
(get-value (t_5))
(get-value (a_5))
; Stack: {'PUSH': 0, 'POP': 1, 'NOP': 2, 'DUP1': 3, 'DUP2': 4, 'DUP3': 5, 'DUP4': 6, 'DUP5': 7, 'SWAP1': 8, 'SWAP2': 9, 'SWAP3': 10, 'SWAP4': 11, 'SWAP5': 12}
; Comm: {}
; Non-Comm: {'GT_0': 13, 'ISZERO_0': 14}
; Mem: {}
; L dict: {'ISZERO_0': 14, 'GT_0': 13}
